certificates/rado_a6_c148_N25.cnf
c Rad2 upper bound instance: x1 + 6*x2 - x3 = 148, interval [1,25]
p cnf 25 142
1 3 25 0
-1 -3 -25 0
2 4 25 0
-2 -4 -25 0
3 5 25 0
-3 -5 -25 0
4 6 25 0
-4 -6 -25 0
1 5 24 0
-1 -5 -24 0
5 7 25 0
-5 -7 -25 0
2 6 24 0
-2 -6 -24 0
6 8 25 0
-6 -8 -25 0
3 7 24 0
-3 -7 -24 0
7 9 25 0
-7 -9 -25 0
4 8 24 0
-4 -8 -24 0
8 10 25 0
-8 -10 -25 0
5 9 24 0
-5 -9 -24 0
9 11 25 0
-9 -11 -25 0
6 10 24 0
-6 -10 -24 0
10 12 25 0
-10 -12 -25 0
1 11 23 0
-1 -11 -23 0
7 11 24 0
-7 -11 -24 0
11 13 25 0
-11 -13 -25 0
2 12 23 0
-2 -12 -23 0
8 12 24 0
-8 -12 -24 0
12 14 25 0
-12 -14 -25 0
3 13 23 0
-3 -13 -23 0
9 13 24 0
-9 -13 -24 0
13 15 25 0
-13 -15 -25 0
4 14 23 0
-4 -14 -23 0
10 14 24 0
-10 -14 -24 0
14 16 25 0
-14 -16 -25 0
5 15 23 0
-5 -15 -23 0
11 15 24 0
-11 -15 -24 0
15 17 25 0
-15 -17 -25 0
6 16 23 0
-6 -16 -23 0
12 16 24 0
-12 -16 -24 0
16 18 25 0
-16 -18 -25 0
1 17 22 0
-1 -17 -22 0
7 17 23 0
-7 -17 -23 0
13 17 24 0
-13 -17 -24 0
17 19 25 0
-17 -19 -25 0
2 18 22 0
-2 -18 -22 0
8 18 23 0
-8 -18 -23 0
14 18 24 0
-14 -18 -24 0
18 20 25 0
-18 -20 -25 0
3 19 22 0
-3 -19 -22 0
9 19 23 0
-9 -19 -23 0
15 19 24 0
-15 -19 -24 0
19 21 25 0
-19 -21 -25 0
4 20 22 0
-4 -20 -22 0
10 20 23 0
-10 -20 -23 0
16 20 24 0
-16 -20 -24 0
20 22 25 0
-20 -22 -25 0
5 21 22 0
-5 -21 -22 0
11 21 23 0
-11 -21 -23 0
17 21 24 0
-17 -21 -24 0
21 23 25 0
-21 -23 -25 0
6 22 0
-6 -22 0
12 22 23 0
-12 -22 -23 0
18 22 24 0
-18 -22 -24 0
22 24 25 0
-22 -24 -25 0
1 21 23 0
-1 -21 -23 0
7 22 23 0
-7 -22 -23 0
13 23 0
-13 -23 0
19 23 24 0
-19 -23 -24 0
23 25 0
-23 -25 0
2 21 24 0
-2 -21 -24 0
8 22 24 0
-8 -22 -24 0
14 23 24 0
-14 -23 -24 0
20 24 0
-20 -24 0
3 21 25 0
-3 -21 -25 0
9 22 25 0
-9 -22 -25 0
15 23 25 0
-15 -23 -25 0
21 24 25 0
-21 -24 -25 0
