certificates/rado_a6_c148_N25.drat
-25 0
23 0
-13 0
11 0
15 0
-1 0
-21 0
-5 0
-24 0
3 0
19 0
17 0
0
